1948.73 0
0 49 54 48 47 38 43 62 0
0 19 20 26 99 17 0
0 11 23 97 90 92 18 0
0 96 91 88 94 98 95 89 93 0
0 7 100 6 8 9 2 1 10 5 3 4 16 0
0 22 14 73 74 75 24 0
0 53 59 45 35 63 56 76 57 55 52 0
0 25 21 15 12 0
0 68 32 46 37 42 34 36 31 33 40 39 41 28 30 67 58 44 29 60 64 0
0 27 13 83 85 81 82 86 84 87 50 66 65 61 0
0 51 80 79 78 77 69 71 72 70 0
